50, 801
24, 19
48, 38
48, 38
53, 48
106, 96
159, 144
31, 26
62, 52
62, 52
41, 36
82, 72
8, 3
16, 6
32, 12
24, 9
16, 11
16, 11
40, 35
80, 70
160, 140
120, 105
9, 4
9, 4
45, 40
45, 40
16, 11
16, 11
19, 14
38, 28
76, 56
19, 14
8, 3
16, 6
19, 14
38, 28
76, 56
19, 14
16, 11
32, 22
64, 44
23, 18
46, 36
69, 54
7, 2
14, 4
8, 3
16, 6
32, 12
16, 6
24, 19
